100
100
99
98
98
97
97
97
95
94
94
94
93
93
91
91
90
89
89
88
88
87
86
83
83
82
82
81
81
80
80
79
79
78
76
74
73
73
72
71
71
70
70
70
68
68
67
66
66
65
64
64
61
61
60
59
59
57
56
56
56
56
56
55
54
53
51
51
51
51
50
50
50
49
47
47
47
46
46
45
45
43
43
42
41
40
40
39
39
38
38
37
35
34
34
34
33
33
32
30
30
30
